solution status: optimal solution found
objective value:                                    0
$_55_y                                             -6 	(obj:0)
$_55_z                                             -5 	(obj:0)
$_33_y                                             -3 	(obj:0)
$_33_z                                              3 	(obj:0)
$_88_y                                             -4 	(obj:0)
$_88_z                                             -4 	(obj:0)
$_248_y                                             1 	(obj:0)
$_248_z                                             1 	(obj:0)
$_53_y                                             -5 	(obj:0)
$_53_z                                             -6 	(obj:0)
$_32_y                                             -4 	(obj:0)
$_32_z                                              3 	(obj:0)
$_31_y                                             -4 	(obj:0)
$_31_z                                             -7 	(obj:0)
$_165_z                                            -3 	(obj:0)
$_166_y                                             2 	(obj:0)
$_166_z                                            -1 	(obj:0)
$_206_y                                            -1 	(obj:0)
$_206_z                                            -3 	(obj:0)
$_247_y                                            -3 	(obj:0)
$_247_z                                            -3 	(obj:0)
$_207_y                                             3 	(obj:0)
$_89_y                                             -2 	(obj:0)
$_89_z                                             -3 	(obj:0)
$_54_y                                             -6 	(obj:0)
$_54_z                                             -6 	(obj:0)
